\* Problem_Okien *\
Maximize
Calkowity_zysk: 3000 Aluminiowe + 5000 Drewniane
Subject To
_C1: Aluminiowe <= 4
_C2: 2 Drewniane <= 12
_C3: 3 Aluminiowe + 2 Drewniane <= 18
Bounds
0 <= Aluminiowe
0 <= Drewniane
Generals
Aluminiowe
Drewniane
End
